data/lp_files/pEFS/53_0.lp
\ Model foo
\ LP format - for model browsing. Use MPS format to capture full model detail.
Minimize
  z
Subject To
 allocateEach[1]: x[1,1] + x[2,1] + x[3,1] = 1
 allocateEach[2]: x[1,2] + x[2,2] + x[3,2] = 1
 allocateEach[3]: x[1,3] + x[2,3] + x[3,3] = 1
 allocateEach[4]: x[1,4] + x[2,4] + x[3,4] = 1
 allocateEach[5]: x[1,5] + x[2,5] + x[3,5] = 1
 allocateEach[6]: x[1,6] + x[2,6] + x[3,6] = 1
 allocateEach[7]: x[1,7] + x[2,7] + x[3,7] = 1
 allocateEach[8]: x[1,8] + x[2,8] + x[3,8] = 1
 allocateEach[9]: x[1,9] + x[2,9] + x[3,9] = 1
 allocateEach[10]: x[1,10] + x[2,10] + x[3,10] = 1
 allocateEach[11]: x[1,11] + x[2,11] + x[3,11] = 1
 allocateEach[12]: x[1,12] + x[2,12] + x[3,12] = 1
 allocateEach[13]: x[1,13] + x[2,13] + x[3,13] = 1
 allocateAllCash: cashProportion[1] + cashProportion[2] + cashProportion[3]
   = 1
 findWorstP[1,2]: z + 0.00665282878279845 cashProportion[1]
   - 0.00665282878279845 cashProportion[2] + 0.0841316727872691 x[1,1]
   + 0.0867262760125606 x[1,2] + 0.0285938581084677 x[1,3]
   + 0.1079088828569908 x[1,4] + 0.0718372451966576 x[1,5]
   + 0.0171110756293576 x[1,6] + 0.1109425727819469 x[1,7]
   + 0.1040502421629677 x[1,8] + 0.0706131247006227 x[1,9]
   + 0.1100244824099207 x[1,10] + 0.00468359146309011 x[1,11]
   + 0.1262307733248177 x[1,12] + 0.0704933737825323 x[1,13]
   - 0.0841316727872691 x[2,1] - 0.0867262760125606 x[2,2]
   - 0.0285938581084677 x[2,3] - 0.1079088828569908 x[2,4]
   - 0.0718372451966576 x[2,5] - 0.0171110756293576 x[2,6]
   - 0.1109425727819469 x[2,7] - 0.1040502421629677 x[2,8]
   - 0.0706131247006227 x[2,9] - 0.1100244824099207 x[2,10]
   - 0.00468359146309011 x[2,11] - 0.1262307733248177 x[2,12]
   - 0.0704933737825323 x[2,13] >= 0
 findWorstP[1,3]: z + 0.00665282878279845 cashProportion[1]
   - 0.00665282878279845 cashProportion[3] + 0.0841316727872691 x[1,1]
   + 0.0867262760125606 x[1,2] + 0.0285938581084677 x[1,3]
   + 0.1079088828569908 x[1,4] + 0.0718372451966576 x[1,5]
   + 0.0171110756293576 x[1,6] + 0.1109425727819469 x[1,7]
   + 0.1040502421629677 x[1,8] + 0.0706131247006227 x[1,9]
   + 0.1100244824099207 x[1,10] + 0.00468359146309011 x[1,11]
   + 0.1262307733248177 x[1,12] + 0.0704933737825323 x[1,13]
   - 0.0841316727872691 x[3,1] - 0.0867262760125606 x[3,2]
   - 0.0285938581084677 x[3,3] - 0.1079088828569908 x[3,4]
   - 0.0718372451966576 x[3,5] - 0.0171110756293576 x[3,6]
   - 0.1109425727819469 x[3,7] - 0.1040502421629677 x[3,8]
   - 0.0706131247006227 x[3,9] - 0.1100244824099207 x[3,10]
   - 0.00468359146309011 x[3,11] - 0.1262307733248177 x[3,12]
   - 0.0704933737825323 x[3,13] >= 0
 findWorstP[2,1]: z - 0.00879925382327579 cashProportion[1]
   + 0.00879925382327579 cashProportion[2] - 0.1127712369991025 x[1,1]
   - 0.1439205955334987 x[1,2] - 0.0150115270225085 x[1,3]
   - 0.0358129630607324 x[1,4] - 0.1358428805237316 x[1,5]
   - 0.0960174577195854 x[1,6] - 0.0397374302659134 x[1,7]
   - 0.0240395614451894 x[1,8] - 0.0819562501099907 x[1,9]
   - 0.0785773366418528 x[1,10] - 0.0743712933143269 x[1,11]
   - 0.1021769353958784 x[1,12] - 0.0509652781444134 x[1,13]
   + 0.1127712369991025 x[2,1] + 0.1439205955334987 x[2,2]
   + 0.0150115270225085 x[2,3] + 0.0358129630607324 x[2,4]
   + 0.1358428805237316 x[2,5] + 0.0960174577195854 x[2,6]
   + 0.0397374302659134 x[2,7] + 0.0240395614451894 x[2,8]
   + 0.0819562501099907 x[2,9] + 0.0785773366418528 x[2,10]
   + 0.0743712933143269 x[2,11] + 0.1021769353958784 x[2,12]
   + 0.0509652781444134 x[2,13] >= 0
 findWorstP[2,3]: z + 0.00879925382327579 cashProportion[2]
   - 0.00879925382327579 cashProportion[3] + 0.1127712369991025 x[2,1]
   + 0.1439205955334987 x[2,2] + 0.0150115270225085 x[2,3]
   + 0.0358129630607324 x[2,4] + 0.1358428805237316 x[2,5]
   + 0.0960174577195854 x[2,6] + 0.0397374302659134 x[2,7]
   + 0.0240395614451894 x[2,8] + 0.0819562501099907 x[2,9]
   + 0.0785773366418528 x[2,10] + 0.0743712933143269 x[2,11]
   + 0.1021769353958784 x[2,12] + 0.0509652781444134 x[2,13]
   - 0.1127712369991025 x[3,1] - 0.1439205955334987 x[3,2]
   - 0.0150115270225085 x[3,3] - 0.0358129630607324 x[3,4]
   - 0.1358428805237316 x[3,5] - 0.0960174577195854 x[3,6]
   - 0.0397374302659134 x[3,7] - 0.0240395614451894 x[3,8]
   - 0.0819562501099907 x[3,9] - 0.0785773366418528 x[3,10]
   - 0.0743712933143269 x[3,11] - 0.1021769353958784 x[3,12]
   - 0.0509652781444134 x[3,13] >= 0
 findWorstP[3,1]: z - 0.00913158615651539 cashProportion[1]
   + 0.00913158615651539 cashProportion[3] - 0.0560131494840654 x[1,1]
   - 0.0487444069034791 x[1,2] - 0.1573554926490731 x[1,3]
   - 0.0444708245822299 x[1,4] - 0.0442516665144736 x[1,5]
   - 4.0178979088667706e-04 x[1,6] - 0.169135238790978 x[1,7]
   - 0.0441603506529084 x[1,8] - 0.0323258149940645 x[1,9]
   - 0.1745228746233221 x[1,10] - 0.0405807688795544 x[1,11]
   - 0.089014701853712 x[1,12] - 0.0898913341247375 x[1,13]
   + 0.0560131494840654 x[3,1] + 0.0487444069034791 x[3,2]
   + 0.1573554926490731 x[3,3] + 0.0444708245822299 x[3,4]
   + 0.0442516665144736 x[3,5] + 4.0178979088667706e-04 x[3,6]
   + 0.169135238790978 x[3,7] + 0.0441603506529084 x[3,8]
   + 0.0323258149940645 x[3,9] + 0.1745228746233221 x[3,10]
   + 0.0405807688795544 x[3,11] + 0.089014701853712 x[3,12]
   + 0.0898913341247375 x[3,13] >= 0
 findWorstP[3,2]: z - 0.00913158615651539 cashProportion[2]
   + 0.00913158615651539 cashProportion[3] - 0.0560131494840654 x[2,1]
   - 0.0487444069034791 x[2,2] - 0.1573554926490731 x[2,3]
   - 0.0444708245822299 x[2,4] - 0.0442516665144736 x[2,5]
   - 4.0178979088667706e-04 x[2,6] - 0.169135238790978 x[2,7]
   - 0.0441603506529084 x[2,8] - 0.0323258149940645 x[2,9]
   - 0.1745228746233221 x[2,10] - 0.0405807688795544 x[2,11]
   - 0.089014701853712 x[2,12] - 0.0898913341247375 x[2,13]
   + 0.0560131494840654 x[3,1] + 0.0487444069034791 x[3,2]
   + 0.1573554926490731 x[3,3] + 0.0444708245822299 x[3,4]
   + 0.0442516665144736 x[3,5] + 4.0178979088667706e-04 x[3,6]
   + 0.169135238790978 x[3,7] + 0.0441603506529084 x[3,8]
   + 0.0323258149940645 x[3,9] + 0.1745228746233221 x[3,10]
   + 0.0405807688795544 x[3,11] + 0.089014701853712 x[3,12]
   + 0.0898913341247375 x[3,13] >= 0
Bounds
 z <= 1
 -infinity <= cashProportion[1] <= 1
 -infinity <= cashProportion[2] <= 1
 -infinity <= cashProportion[3] <= 1
Binaries
 x[1,1] x[1,2] x[1,3] x[1,4] x[1,5] x[1,6] x[1,7] x[1,8] x[1,9] x[1,10]
 x[1,11] x[1,12] x[1,13] x[2,1] x[2,2] x[2,3] x[2,4] x[2,5] x[2,6] x[2,7]
 x[2,8] x[2,9] x[2,10] x[2,11] x[2,12] x[2,13] x[3,1] x[3,2] x[3,3] x[3,4]
 x[3,5] x[3,6] x[3,7] x[3,8] x[3,9] x[3,10] x[3,11] x[3,12] x[3,13]
End
