data/mps_files/pEFS/53_0.mps
NAME foo
ROWS
 N  OBJ
 E  allocateEach[1]
 E  allocateEach[2]
 E  allocateEach[3]
 E  allocateEach[4]
 E  allocateEach[5]
 E  allocateEach[6]
 E  allocateEach[7]
 E  allocateEach[8]
 E  allocateEach[9]
 E  allocateEach[10]
 E  allocateEach[11]
 E  allocateEach[12]
 E  allocateEach[13]
 E  allocateAllCash
 G  findWorstP[1,2]
 G  findWorstP[1,3]
 G  findWorstP[2,1]
 G  findWorstP[2,3]
 G  findWorstP[3,1]
 G  findWorstP[3,2]
COLUMNS
    z         OBJ       1
    z         findWorstP[1,2]  1
    z         findWorstP[1,3]  1
    z         findWorstP[2,1]  1
    z         findWorstP[2,3]  1
    z         findWorstP[3,1]  1
    z         findWorstP[3,2]  1
    cashProportion[1]  allocateAllCash  1
    cashProportion[1]  findWorstP[1,2]  6.6528287827984471e-03
    cashProportion[1]  findWorstP[1,3]  6.6528287827984471e-03
    cashProportion[1]  findWorstP[2,1]  -8.7992538232757860e-03
    cashProportion[1]  findWorstP[3,1]  -9.1315861565153863e-03
    cashProportion[2]  allocateAllCash  1
    cashProportion[2]  findWorstP[1,2]  -6.6528287827984471e-03
    cashProportion[2]  findWorstP[2,1]  8.7992538232757860e-03
    cashProportion[2]  findWorstP[2,3]  8.7992538232757860e-03
    cashProportion[2]  findWorstP[3,2]  -9.1315861565153863e-03
    cashProportion[3]  allocateAllCash  1
    cashProportion[3]  findWorstP[1,3]  -6.6528287827984471e-03
    cashProportion[3]  findWorstP[2,3]  -8.7992538232757860e-03
    cashProportion[3]  findWorstP[3,1]  9.1315861565153863e-03
    cashProportion[3]  findWorstP[3,2]  9.1315861565153863e-03
    MARKER    'MARKER'                 'INTORG'
    x[1,1]    allocateEach[1]  1
    x[1,1]    findWorstP[1,2]  8.4131672787269143e-02
    x[1,1]    findWorstP[1,3]  8.4131672787269143e-02
    x[1,1]    findWorstP[2,1]  -1.1277123699910246e-01
    x[1,1]    findWorstP[3,1]  -5.6013149484065376e-02
    x[1,2]    allocateEach[2]  1
    x[1,2]    findWorstP[1,2]  8.6726276012560555e-02
    x[1,2]    findWorstP[1,3]  8.6726276012560555e-02
    x[1,2]    findWorstP[2,1]  -1.4392059553349873e-01
    x[1,2]    findWorstP[3,1]  -4.8744406903479136e-02
    x[1,3]    allocateEach[3]  1
    x[1,3]    findWorstP[1,2]  2.8593858108467724e-02
    x[1,3]    findWorstP[1,3]  2.8593858108467724e-02
    x[1,3]    findWorstP[2,1]  -1.5011527022508490e-02
    x[1,3]    findWorstP[3,1]  -1.5735549264907314e-01
    x[1,4]    allocateEach[4]  1
    x[1,4]    findWorstP[1,2]  1.0790888285699081e-01
    x[1,4]    findWorstP[1,3]  1.0790888285699081e-01
    x[1,4]    findWorstP[2,1]  -3.5812963060732443e-02
    x[1,4]    findWorstP[3,1]  -4.4470824582229930e-02
    x[1,5]    allocateEach[5]  1
    x[1,5]    findWorstP[1,2]  7.1837245196657629e-02
    x[1,5]    findWorstP[1,3]  7.1837245196657629e-02
    x[1,5]    findWorstP[2,1]  -1.3584288052373159e-01
    x[1,5]    findWorstP[3,1]  -4.4251666514473563e-02
    x[1,6]    allocateEach[6]  1
    x[1,6]    findWorstP[1,2]  1.7111075629357604e-02
    x[1,6]    findWorstP[1,3]  1.7111075629357604e-02
    x[1,6]    findWorstP[2,1]  -9.6017457719585364e-02
    x[1,6]    findWorstP[3,1]  -4.0178979088667706e-04
    x[1,7]    allocateEach[7]  1
    x[1,7]    findWorstP[1,2]  1.1094257278194689e-01
    x[1,7]    findWorstP[1,3]  1.1094257278194689e-01
    x[1,7]    findWorstP[2,1]  -3.9737430265913448e-02
    x[1,7]    findWorstP[3,1]  -0.169135238790978
    x[1,8]    allocateEach[8]  1
    x[1,8]    findWorstP[1,2]  1.0405024216296771e-01
    x[1,8]    findWorstP[1,3]  1.0405024216296771e-01
    x[1,8]    findWorstP[2,1]  -2.4039561445189445e-02
    x[1,8]    findWorstP[3,1]  -4.4160350652908409e-02
    x[1,9]    allocateEach[9]  1
    x[1,9]    findWorstP[1,2]  0.0706131247006227
    x[1,9]    findWorstP[1,3]  0.0706131247006227
    x[1,9]    findWorstP[2,1]  -8.1956250109990664e-02
    x[1,9]    findWorstP[3,1]  -3.2325814994064464e-02
    x[1,10]   allocateEach[10]  1
    x[1,10]   findWorstP[1,2]  1.1002448240992070e-01
    x[1,10]   findWorstP[1,3]  1.1002448240992070e-01
    x[1,10]   findWorstP[2,1]  -7.8577336641852763e-02
    x[1,10]   findWorstP[3,1]  -1.7452287462332208e-01
    x[1,11]   allocateEach[11]  1
    x[1,11]   findWorstP[1,2]  4.6835914630901062e-03
    x[1,11]   findWorstP[1,3]  4.6835914630901062e-03
    x[1,11]   findWorstP[2,1]  -7.4371293314326931e-02
    x[1,11]   findWorstP[3,1]  -4.0580768879554377e-02
    x[1,12]   allocateEach[12]  1
    x[1,12]   findWorstP[1,2]  1.2623077332481772e-01
    x[1,12]   findWorstP[1,3]  1.2623077332481772e-01
    x[1,12]   findWorstP[2,1]  -1.0217693539587841e-01
    x[1,12]   findWorstP[3,1]  -8.9014701853711992e-02
    x[1,13]   allocateEach[13]  1
    x[1,13]   findWorstP[1,2]  7.0493373782532343e-02
    x[1,13]   findWorstP[1,3]  7.0493373782532343e-02
    x[1,13]   findWorstP[2,1]  -5.0965278144413352e-02
    x[1,13]   findWorstP[3,1]  -8.9891334124737474e-02
    x[2,1]    allocateEach[1]  1
    x[2,1]    findWorstP[1,2]  -8.4131672787269143e-02
    x[2,1]    findWorstP[2,1]  1.1277123699910246e-01
    x[2,1]    findWorstP[2,3]  1.1277123699910246e-01
    x[2,1]    findWorstP[3,2]  -5.6013149484065376e-02
    x[2,2]    allocateEach[2]  1
    x[2,2]    findWorstP[1,2]  -8.6726276012560555e-02
    x[2,2]    findWorstP[2,1]  1.4392059553349873e-01
    x[2,2]    findWorstP[2,3]  1.4392059553349873e-01
    x[2,2]    findWorstP[3,2]  -4.8744406903479136e-02
    x[2,3]    allocateEach[3]  1
    x[2,3]    findWorstP[1,2]  -2.8593858108467724e-02
    x[2,3]    findWorstP[2,1]  1.5011527022508490e-02
    x[2,3]    findWorstP[2,3]  1.5011527022508490e-02
    x[2,3]    findWorstP[3,2]  -1.5735549264907314e-01
    x[2,4]    allocateEach[4]  1
    x[2,4]    findWorstP[1,2]  -1.0790888285699081e-01
    x[2,4]    findWorstP[2,1]  3.5812963060732443e-02
    x[2,4]    findWorstP[2,3]  3.5812963060732443e-02
    x[2,4]    findWorstP[3,2]  -4.4470824582229930e-02
    x[2,5]    allocateEach[5]  1
    x[2,5]    findWorstP[1,2]  -7.1837245196657629e-02
    x[2,5]    findWorstP[2,1]  1.3584288052373159e-01
    x[2,5]    findWorstP[2,3]  1.3584288052373159e-01
    x[2,5]    findWorstP[3,2]  -4.4251666514473563e-02
    x[2,6]    allocateEach[6]  1
    x[2,6]    findWorstP[1,2]  -1.7111075629357604e-02
    x[2,6]    findWorstP[2,1]  9.6017457719585364e-02
    x[2,6]    findWorstP[2,3]  9.6017457719585364e-02
    x[2,6]    findWorstP[3,2]  -4.0178979088667706e-04
    x[2,7]    allocateEach[7]  1
    x[2,7]    findWorstP[1,2]  -1.1094257278194689e-01
    x[2,7]    findWorstP[2,1]  3.9737430265913448e-02
    x[2,7]    findWorstP[2,3]  3.9737430265913448e-02
    x[2,7]    findWorstP[3,2]  -0.169135238790978
    x[2,8]    allocateEach[8]  1
    x[2,8]    findWorstP[1,2]  -1.0405024216296771e-01
    x[2,8]    findWorstP[2,1]  2.4039561445189445e-02
    x[2,8]    findWorstP[2,3]  2.4039561445189445e-02
    x[2,8]    findWorstP[3,2]  -4.4160350652908409e-02
    x[2,9]    allocateEach[9]  1
    x[2,9]    findWorstP[1,2]  -0.0706131247006227
    x[2,9]    findWorstP[2,1]  8.1956250109990664e-02
    x[2,9]    findWorstP[2,3]  8.1956250109990664e-02
    x[2,9]    findWorstP[3,2]  -3.2325814994064464e-02
    x[2,10]   allocateEach[10]  1
    x[2,10]   findWorstP[1,2]  -1.1002448240992070e-01
    x[2,10]   findWorstP[2,1]  7.8577336641852763e-02
    x[2,10]   findWorstP[2,3]  7.8577336641852763e-02
    x[2,10]   findWorstP[3,2]  -1.7452287462332208e-01
    x[2,11]   allocateEach[11]  1
    x[2,11]   findWorstP[1,2]  -4.6835914630901062e-03
    x[2,11]   findWorstP[2,1]  7.4371293314326931e-02
    x[2,11]   findWorstP[2,3]  7.4371293314326931e-02
    x[2,11]   findWorstP[3,2]  -4.0580768879554377e-02
    x[2,12]   allocateEach[12]  1
    x[2,12]   findWorstP[1,2]  -1.2623077332481772e-01
    x[2,12]   findWorstP[2,1]  1.0217693539587841e-01
    x[2,12]   findWorstP[2,3]  1.0217693539587841e-01
    x[2,12]   findWorstP[3,2]  -8.9014701853711992e-02
    x[2,13]   allocateEach[13]  1
    x[2,13]   findWorstP[1,2]  -7.0493373782532343e-02
    x[2,13]   findWorstP[2,1]  5.0965278144413352e-02
    x[2,13]   findWorstP[2,3]  5.0965278144413352e-02
    x[2,13]   findWorstP[3,2]  -8.9891334124737474e-02
    x[3,1]    allocateEach[1]  1
    x[3,1]    findWorstP[1,3]  -8.4131672787269143e-02
    x[3,1]    findWorstP[2,3]  -1.1277123699910246e-01
    x[3,1]    findWorstP[3,1]  5.6013149484065376e-02
    x[3,1]    findWorstP[3,2]  5.6013149484065376e-02
    x[3,2]    allocateEach[2]  1
    x[3,2]    findWorstP[1,3]  -8.6726276012560555e-02
    x[3,2]    findWorstP[2,3]  -1.4392059553349873e-01
    x[3,2]    findWorstP[3,1]  4.8744406903479136e-02
    x[3,2]    findWorstP[3,2]  4.8744406903479136e-02
    x[3,3]    allocateEach[3]  1
    x[3,3]    findWorstP[1,3]  -2.8593858108467724e-02
    x[3,3]    findWorstP[2,3]  -1.5011527022508490e-02
    x[3,3]    findWorstP[3,1]  1.5735549264907314e-01
    x[3,3]    findWorstP[3,2]  1.5735549264907314e-01
    x[3,4]    allocateEach[4]  1
    x[3,4]    findWorstP[1,3]  -1.0790888285699081e-01
    x[3,4]    findWorstP[2,3]  -3.5812963060732443e-02
    x[3,4]    findWorstP[3,1]  4.4470824582229930e-02
    x[3,4]    findWorstP[3,2]  4.4470824582229930e-02
    x[3,5]    allocateEach[5]  1
    x[3,5]    findWorstP[1,3]  -7.1837245196657629e-02
    x[3,5]    findWorstP[2,3]  -1.3584288052373159e-01
    x[3,5]    findWorstP[3,1]  4.4251666514473563e-02
    x[3,5]    findWorstP[3,2]  4.4251666514473563e-02
    x[3,6]    allocateEach[6]  1
    x[3,6]    findWorstP[1,3]  -1.7111075629357604e-02
    x[3,6]    findWorstP[2,3]  -9.6017457719585364e-02
    x[3,6]    findWorstP[3,1]  4.0178979088667706e-04
    x[3,6]    findWorstP[3,2]  4.0178979088667706e-04
    x[3,7]    allocateEach[7]  1
    x[3,7]    findWorstP[1,3]  -1.1094257278194689e-01
    x[3,7]    findWorstP[2,3]  -3.9737430265913448e-02
    x[3,7]    findWorstP[3,1]  0.169135238790978
    x[3,7]    findWorstP[3,2]  0.169135238790978
    x[3,8]    allocateEach[8]  1
    x[3,8]    findWorstP[1,3]  -1.0405024216296771e-01
    x[3,8]    findWorstP[2,3]  -2.4039561445189445e-02
    x[3,8]    findWorstP[3,1]  4.4160350652908409e-02
    x[3,8]    findWorstP[3,2]  4.4160350652908409e-02
    x[3,9]    allocateEach[9]  1
    x[3,9]    findWorstP[1,3]  -0.0706131247006227
    x[3,9]    findWorstP[2,3]  -8.1956250109990664e-02
    x[3,9]    findWorstP[3,1]  3.2325814994064464e-02
    x[3,9]    findWorstP[3,2]  3.2325814994064464e-02
    x[3,10]   allocateEach[10]  1
    x[3,10]   findWorstP[1,3]  -1.1002448240992070e-01
    x[3,10]   findWorstP[2,3]  -7.8577336641852763e-02
    x[3,10]   findWorstP[3,1]  1.7452287462332208e-01
    x[3,10]   findWorstP[3,2]  1.7452287462332208e-01
    x[3,11]   allocateEach[11]  1
    x[3,11]   findWorstP[1,3]  -4.6835914630901062e-03
    x[3,11]   findWorstP[2,3]  -7.4371293314326931e-02
    x[3,11]   findWorstP[3,1]  4.0580768879554377e-02
    x[3,11]   findWorstP[3,2]  4.0580768879554377e-02
    x[3,12]   allocateEach[12]  1
    x[3,12]   findWorstP[1,3]  -1.2623077332481772e-01
    x[3,12]   findWorstP[2,3]  -1.0217693539587841e-01
    x[3,12]   findWorstP[3,1]  8.9014701853711992e-02
    x[3,12]   findWorstP[3,2]  8.9014701853711992e-02
    x[3,13]   allocateEach[13]  1
    x[3,13]   findWorstP[1,3]  -7.0493373782532343e-02
    x[3,13]   findWorstP[2,3]  -5.0965278144413352e-02
    x[3,13]   findWorstP[3,1]  8.9891334124737474e-02
    x[3,13]   findWorstP[3,2]  8.9891334124737474e-02
    MARKER    'MARKER'                 'INTEND'
RHS
    RHS1      allocateEach[1]  1
    RHS1      allocateEach[2]  1
    RHS1      allocateEach[3]  1
    RHS1      allocateEach[4]  1
    RHS1      allocateEach[5]  1
    RHS1      allocateEach[6]  1
    RHS1      allocateEach[7]  1
    RHS1      allocateEach[8]  1
    RHS1      allocateEach[9]  1
    RHS1      allocateEach[10]  1
    RHS1      allocateEach[11]  1
    RHS1      allocateEach[12]  1
    RHS1      allocateEach[13]  1
    RHS1      allocateAllCash  1
BOUNDS
 UP BND1      z         1
 MI BND1      cashProportion[1]
 UP BND1      cashProportion[1]  1
 MI BND1      cashProportion[2]
 UP BND1      cashProportion[2]  1
 MI BND1      cashProportion[3]
 UP BND1      cashProportion[3]  1
 BV BND1      x[1,1]  
 BV BND1      x[1,2]  
 BV BND1      x[1,3]  
 BV BND1      x[1,4]  
 BV BND1      x[1,5]  
 BV BND1      x[1,6]  
 BV BND1      x[1,7]  
 BV BND1      x[1,8]  
 BV BND1      x[1,9]  
 BV BND1      x[1,10] 
 BV BND1      x[1,11] 
 BV BND1      x[1,12] 
 BV BND1      x[1,13] 
 BV BND1      x[2,1]  
 BV BND1      x[2,2]  
 BV BND1      x[2,3]  
 BV BND1      x[2,4]  
 BV BND1      x[2,5]  
 BV BND1      x[2,6]  
 BV BND1      x[2,7]  
 BV BND1      x[2,8]  
 BV BND1      x[2,9]  
 BV BND1      x[2,10] 
 BV BND1      x[2,11] 
 BV BND1      x[2,12] 
 BV BND1      x[2,13] 
 BV BND1      x[3,1]  
 BV BND1      x[3,2]  
 BV BND1      x[3,3]  
 BV BND1      x[3,4]  
 BV BND1      x[3,5]  
 BV BND1      x[3,6]  
 BV BND1      x[3,7]  
 BV BND1      x[3,8]  
 BV BND1      x[3,9]  
 BV BND1      x[3,10] 
 BV BND1      x[3,11] 
 BV BND1      x[3,12] 
 BV BND1      x[3,13] 
ENDATA
